p cnf 12 50 
-4 -6 -9 0
-8 -9 7 0
-9 -4 -6 0
6 -7 -9 0
-3 2 -6 0
-9 -8 -10 0
6 -1 2 0
6 4 1 0
1 -7 -8 0
-7 4 8 0
8 10 9 0
-5 12 11 0
-11 -2 -1 0
-12 -6 3 0
-6 4 2 0
-3 12 -5 0
-3 12 5 0
-6 -12 8 0
-9 11 -2 0
-4 10 2 0
3 -7 12 0
-10 3 12 0
-8 11 6 0
9 12 -1 0
-11 -8 6 0
2 -5 7 0
-1 -11 -3 0
12 -11 3 0
-1 6 -10 0
-6 1 -7 0
7 5 -12 0
-2 -10 -1 0
4 7 8 0
2 -8 5 0
-10 11 3 0
-7 -3 -11 0
-6 -7 -12 0
7 4 6 0
-10 4 8 0
-2 5 -8 0
2 5 4 0
7 2 8 0
3 -9 5 0
-12 -1 -8 0
4 -7 -5 0
-1 7 12 0
-4 -10 -7 0
9 2 -10 0
-2 7 -8 0
5 -2 -1 0
